(set-option :produce-models true)
(set-option :produce-unsat-cores true)
(set-option :produce-interpolants true)
(set-option :interpolant-check-mode true)
(set-option :proof-transformation LU)
(set-logic ALL)
(set-info :source |SMT script generated on 2024-03-30T23:49:34+01:00 by Ultimate (https://ultimate.informatik.uni-freiburg.de/)|)
(set-info :smt-lib-version 2.5)
(set-info :category "industrial")
(set-info :ultimate-id array_tiling_poly6.c_AllErrorsAtOnce_Iteration3)
(declare-fun |c_old(#valid)| () (Array Int Int))
(declare-fun |c_old(#valid)_primed| () (Array Int Int))
(declare-fun |c_#valid| () (Array Int Int))
(declare-fun |c_#valid_primed| () (Array Int Int))
(declare-fun |c_old(#length)| () (Array Int Int))
(declare-fun |c_old(#length)_primed| () (Array Int Int))
(declare-fun |c_#length| () (Array Int Int))
(declare-fun |c_#length_primed| () (Array Int Int))
(declare-fun |c_old(#memory_int#0)| () (Array Int (Array Int Int)))
(declare-fun |c_old(#memory_int#0)_primed| () (Array Int (Array Int Int)))
(declare-fun |c_#memory_int#0| () (Array Int (Array Int Int)))
(declare-fun |c_#memory_int#0_primed| () (Array Int (Array Int Int)))
(declare-fun |c_old(#memory_int#1)| () (Array Int (Array Int Int)))
(declare-fun |c_old(#memory_int#1)_primed| () (Array Int (Array Int Int)))
(declare-fun |c_#memory_int#1| () (Array Int (Array Int Int)))
(declare-fun |c_#memory_int#1_primed| () (Array Int (Array Int Int)))
(declare-fun |c_old(#StackHeapBarrier)| () Int)
(declare-fun |c_old(#StackHeapBarrier)_primed| () Int)
(declare-fun |c_#StackHeapBarrier| () Int)
(declare-fun |c_#StackHeapBarrier_primed| () Int)
(declare-fun |c_#Ultimate.allocInit_~size| () Int)
(declare-fun |c_#Ultimate.allocInit_~size_primed| () Int)
(declare-fun |c_#Ultimate.allocInit_ptrBase| () Int)
(declare-fun |c_#Ultimate.allocInit_ptrBase_primed| () Int)
(declare-fun |c_read~int#1_#ptr.base| () Int)
(declare-fun |c_read~int#1_#ptr.base_primed| () Int)
(declare-fun |c_read~int#1_#ptr.offset| () Int)
(declare-fun |c_read~int#1_#ptr.offset_primed| () Int)
(declare-fun |c_read~int#1_#sizeOfReadType| () Int)
(declare-fun |c_read~int#1_#sizeOfReadType_primed| () Int)
(declare-fun |c_read~int#1_#value| () Int)
(declare-fun |c_read~int#1_#value_primed| () Int)
(declare-fun |c_read~int#0_#ptr.base| () Int)
(declare-fun |c_read~int#0_#ptr.base_primed| () Int)
(declare-fun |c_read~int#0_#ptr.offset| () Int)
(declare-fun |c_read~int#0_#ptr.offset_primed| () Int)
(declare-fun |c_read~int#0_#sizeOfReadType| () Int)
(declare-fun |c_read~int#0_#sizeOfReadType_primed| () Int)
(declare-fun |c_read~int#0_#value| () Int)
(declare-fun |c_read~int#0_#value_primed| () Int)
(declare-fun |c_assume_abort_if_not_#in~cond| () Int)
(declare-fun |c_assume_abort_if_not_#in~cond_primed| () Int)
(declare-fun c_assume_abort_if_not_~cond () Int)
(declare-fun c_assume_abort_if_not_~cond_primed () Int)
(declare-fun |c_main_#res| () Int)
(declare-fun |c_main_#res_primed| () Int)
(declare-fun |c_main_#t~nondet4| () Int)
(declare-fun |c_main_#t~nondet4_primed| () Int)
(declare-fun |c_main_#t~post5| () Int)
(declare-fun |c_main_#t~post5_primed| () Int)
(declare-fun |c_main_#t~mem6| () Int)
(declare-fun |c_main_#t~mem6_primed| () Int)
(declare-fun |c_main_#t~post7| () Int)
(declare-fun |c_main_#t~post7_primed| () Int)
(declare-fun |c_main_#t~mem8| () Int)
(declare-fun |c_main_#t~mem8_primed| () Int)
(declare-fun |c_main_#t~post9| () Int)
(declare-fun |c_main_#t~post9_primed| () Int)
(declare-fun c_main_~S~0 () Int)
(declare-fun c_main_~S~0_primed () Int)
(declare-fun c_main_~i~0 () Int)
(declare-fun c_main_~i~0_primed () Int)
(declare-fun |c_main_~#a~0.base| () Int)
(declare-fun |c_main_~#a~0.base_primed| () Int)
(declare-fun |c_main_~#a~0.offset| () Int)
(declare-fun |c_main_~#a~0.offset_primed| () Int)
(declare-fun |c_#Ultimate.allocOnStack_~size| () Int)
(declare-fun |c_#Ultimate.allocOnStack_~size_primed| () Int)
(declare-fun |c_#Ultimate.allocOnStack_#res.base| () Int)
(declare-fun |c_#Ultimate.allocOnStack_#res.base_primed| () Int)
(declare-fun |c_#Ultimate.allocOnStack_#res.offset| () Int)
(declare-fun |c_#Ultimate.allocOnStack_#res.offset_primed| () Int)
(declare-fun |c_write~int#0_#value| () Int)
(declare-fun |c_write~int#0_#value_primed| () Int)
(declare-fun |c_write~int#0_#ptr.base| () Int)
(declare-fun |c_write~int#0_#ptr.base_primed| () Int)
(declare-fun |c_write~int#0_#ptr.offset| () Int)
(declare-fun |c_write~int#0_#ptr.offset_primed| () Int)
(declare-fun |c_write~int#0_#sizeOfWrittenType| () Int)
(declare-fun |c_write~int#0_#sizeOfWrittenType_primed| () Int)
(declare-fun |c_write~int#1_#value| () Int)
(declare-fun |c_write~int#1_#value_primed| () Int)
(declare-fun |c_write~int#1_#ptr.base| () Int)
(declare-fun |c_write~int#1_#ptr.base_primed| () Int)
(declare-fun |c_write~int#1_#ptr.offset| () Int)
(declare-fun |c_write~int#1_#ptr.offset_primed| () Int)
(declare-fun |c_write~int#1_#sizeOfWrittenType| () Int)
(declare-fun |c_write~int#1_#sizeOfWrittenType_primed| () Int)
(declare-fun |c___VERIFIER_nondet_int_#res| () Int)
(declare-fun |c___VERIFIER_nondet_int_#res_primed| () Int)
(declare-fun |c_ULTIMATE.start_#t~ret10| () Int)
(declare-fun |c_ULTIMATE.start_#t~ret10_primed| () Int)
(declare-fun |c___VERIFIER_assert_#in~cond| () Int)
(declare-fun |c___VERIFIER_assert_#in~cond_primed| () Int)
(declare-fun c___VERIFIER_assert_~cond () Int)
(declare-fun c___VERIFIER_assert_~cond_primed () Int)
(declare-fun |c_write~init~int#1_#value| () Int)
(declare-fun |c_write~init~int#1_#value_primed| () Int)
(declare-fun |c_write~init~int#1_#ptr.base| () Int)
(declare-fun |c_write~init~int#1_#ptr.base_primed| () Int)
(declare-fun |c_write~init~int#1_#ptr.offset| () Int)
(declare-fun |c_write~init~int#1_#ptr.offset_primed| () Int)
(declare-fun |c_write~init~int#1_#sizeOfWrittenType| () Int)
(declare-fun |c_write~init~int#1_#sizeOfWrittenType_primed| () Int)
(declare-fun |c___assert_fail_#in~0.base| () Int)
(declare-fun |c___assert_fail_#in~0.base_primed| () Int)
(declare-fun |c___assert_fail_#in~0.offset| () Int)
(declare-fun |c___assert_fail_#in~0.offset_primed| () Int)
(declare-fun |c___assert_fail_#in~1.base| () Int)
(declare-fun |c___assert_fail_#in~1.base_primed| () Int)
(declare-fun |c___assert_fail_#in~1.offset| () Int)
(declare-fun |c___assert_fail_#in~1.offset_primed| () Int)
(declare-fun |c___assert_fail_#in~2| () Int)
(declare-fun |c___assert_fail_#in~2_primed| () Int)
(declare-fun |c___assert_fail_#in~3.base| () Int)
(declare-fun |c___assert_fail_#in~3.base_primed| () Int)
(declare-fun |c___assert_fail_#in~3.offset| () Int)
(declare-fun |c___assert_fail_#in~3.offset_primed| () Int)
(declare-fun |c_write~init~int#0_#value| () Int)
(declare-fun |c_write~init~int#0_#value_primed| () Int)
(declare-fun |c_write~init~int#0_#ptr.base| () Int)
(declare-fun |c_write~init~int#0_#ptr.base_primed| () Int)
(declare-fun |c_write~init~int#0_#ptr.offset| () Int)
(declare-fun |c_write~init~int#0_#ptr.offset_primed| () Int)
(declare-fun |c_write~init~int#0_#sizeOfWrittenType| () Int)
(declare-fun |c_write~init~int#0_#sizeOfWrittenType_primed| () Int)
(declare-fun c_ULTIMATE.dealloc_~addr.base () Int)
(declare-fun c_ULTIMATE.dealloc_~addr.base_primed () Int)
(declare-fun c_ULTIMATE.dealloc_~addr.offset () Int)
(declare-fun c_ULTIMATE.dealloc_~addr.offset_primed () Int)
(declare-fun |c_aux_v_main_#t~mem6_2| () Int)
(declare-fun |c_aux_v_ULTIMATE.start_#t~ret10_3| () Int)
(declare-fun c_aux_v_ArrVal_1 () Int)
(declare-fun c_aux_v_ArrVal_2 () Int)
(declare-fun c_aux_v_ArrVal_4 () Int)
(declare-fun c_aux_v_ArrVal_3 () Int)
(echo "starting trace check")
(push 1)
(declare-fun |#memory_int#0_-1| () (Array Int (Array Int Int)))
(declare-fun |#valid_-1| () (Array Int Int))
(declare-fun |#length_-1| () (Array Int Int))
(declare-fun |#memory_int#1_-1| () (Array Int (Array Int Int)))
(declare-fun |old(#memory_int#0)_-1| () (Array Int (Array Int Int)))
(declare-fun |old(#valid)_-1| () (Array Int Int))
(declare-fun |old(#length)_-1| () (Array Int Int))
(declare-fun |old(#memory_int#1)_-1| () (Array Int (Array Int Int)))
(declare-fun |#StackHeapBarrier_-1| () Int)
(declare-fun |old(#valid)_3| () (Array Int Int))
(declare-fun |old(#length)_3| () (Array Int Int))
(declare-fun |old(#memory_int#1)_3| () (Array Int (Array Int Int)))
(declare-fun |#valid_3| () (Array Int Int))
(declare-fun |#length_3| () (Array Int Int))
(declare-fun |#memory_int#1_3| () (Array Int (Array Int Int)))
(declare-fun |main_#t~nondet4_4| () Int)
(declare-fun main_~S~0_4 () Int)
(declare-fun main_~S~0_5 () Int)
(declare-fun |assume_abort_if_not_#in~cond_5| () Int)
(declare-fun assume_abort_if_not_~cond_6 () Int)
(declare-fun assume_abort_if_not_~cond_7 () Int)
(declare-fun |#valid_10| () (Array Int Int))
(declare-fun main_~i~0_10 () Int)
(declare-fun |#length_10| () (Array Int Int))
(declare-fun |main_~#a~0.base_10| () Int)
(declare-fun |main_~#a~0.offset_10| () Int)
(declare-fun v_ArrVal_5_fresh_1 () Int)
(declare-fun v_ArrVal_6_fresh_1 () Int)
(declare-fun main_~i~0_11 () Int)
(declare-fun |main_#t~post5_11| () Int)
(declare-fun |#memory_int#1_11| () (Array Int (Array Int Int)))
(declare-fun v_ArrVal_8_fresh_1 () (Array Int Int))
(declare-fun v_ArrVal_7_fresh_1 () Int)
(declare-fun main_~i~0_12 () Int)
(declare-fun main_~i~0_13 () Int)
(declare-fun main_~i~0_14 () Int)
(declare-fun |#memory_int#1_14| () (Array Int (Array Int Int)))
(declare-fun |main_#t~post7_14| () Int)
(declare-fun v_ArrVal_10_fresh_1 () (Array Int Int))
(declare-fun v_ArrVal_9_fresh_1 () Int)
(declare-fun main_~i~0_15 () Int)
(declare-fun main_~i~0_16 () Int)
(declare-fun |main_#t~mem8_17| () Int)
(declare-fun |__VERIFIER_assert_#in~cond_18| () Int)
(declare-fun |main_#t~mem8_18| () Int)
(declare-fun __VERIFIER_assert_~cond_19 () Int)
(declare-fun __VERIFIER_assert_~cond_20 () Int)
(assert (! true :named ssa_precond))
(assert (! (not false) :named ssa_postcond))
(assert (! true :named ssa_0_GlobVarAssigCall))
(assert (! true :named ssa_0_LocVarAssigCall))
(assert (! true :named ssa_0_OldVarAssigCall))
(assert (! (and (= (select |#valid_-1| 1) 1) (= (select |#valid_-1| 2) 1) (= (select |#length_-1| 2) 21) (< 0 |#StackHeapBarrier_-1|) (= (select |#valid_-1| 3) 1) (= (select |#valid_-1| 0) 0) (= (select |#length_-1| 1) 2) (= (select |#length_-1| 3) 12) (= (select (select |#memory_int#0_-1| 1) 1) 0) (= (select (select |#memory_int#0_-1| 1) 0) 48)) :named ssa_1))
(assert (! true :named ssa_2_return))
(assert (! (and (= |old(#valid)_3| |#valid_3|) (= |#length_3| |old(#length)_3|) (= |old(#memory_int#1)_3| |#memory_int#1_3|)) :named ssa_3_GlobVarAssigCall))
(assert (! true :named ssa_3_LocVarAssigCall))
(assert (! (and (= |old(#length)_3| |#length_-1|) (= |#valid_-1| |old(#valid)_3|) (= |old(#memory_int#1)_3| |#memory_int#1_-1|)) :named ssa_3_OldVarAssigCall))
(assert (! (and (<= main_~S~0_4 2147483647) (<= 0 (+ main_~S~0_4 2147483648))) :named ssa_4))
(assert (! true :named ssa_5_GlobVarAssigCall))
(assert (! (= |assume_abort_if_not_#in~cond_5| (ite (< 1 main_~S~0_4) 1 0)) :named ssa_5_LocVarAssigCall))
(assert (! true :named ssa_5_OldVarAssigCall))
(assert (! (= |assume_abort_if_not_#in~cond_5| assume_abort_if_not_~cond_6) :named ssa_6))
(assert (! (not (= assume_abort_if_not_~cond_6 0)) :named ssa_7))
(assert (! true :named ssa_8))
(assert (! true :named ssa_9_return))
(assert (! (and (not (= |main_~#a~0.base_10| 0)) (< |#StackHeapBarrier_-1| |main_~#a~0.base_10|) (= (* (mod main_~S~0_4 536870912) 8) v_ArrVal_5_fresh_1) (= main_~i~0_10 0) (= |main_~#a~0.offset_10| 0) (= (store |#length_3| |main_~#a~0.base_10| v_ArrVal_5_fresh_1) |#length_10|) (= (store |#valid_3| |main_~#a~0.base_10| v_ArrVal_6_fresh_1) |#valid_10|) (= v_ArrVal_6_fresh_1 1) (= (select |#valid_3| |main_~#a~0.base_10|) 0)) :named ssa_10))
(assert (! (and (< main_~i~0_10 main_~S~0_4) (= main_~i~0_11 (+ main_~i~0_10 1)) (= (store |#memory_int#1_3| |main_~#a~0.base_10| v_ArrVal_8_fresh_1) |#memory_int#1_11|) (= (* main_~i~0_10 main_~i~0_10) (+ v_ArrVal_7_fresh_1 1)) (= v_ArrVal_8_fresh_1 (store (select |#memory_int#1_3| |main_~#a~0.base_10|) (+ (* 8 (ite (<= (mod main_~i~0_10 4294967296) 2147483647) (mod main_~i~0_10 4294967296) (+ (mod main_~i~0_10 4294967296) (- 4294967296)))) |main_~#a~0.offset_10|) v_ArrVal_7_fresh_1))) :named ssa_11))
(exit)
